
Gurobi 9.5.1 (linux64) logging started Mon Jul  4 11:56:14 2022

Set parameter LogFile to value "../results/logs/log_Brightkite_edges_20_20_2022_07_04_11_23.log"
Gurobi Optimizer version 9.5.1 build v9.5.1rc2 (linux64)
Thread count: 8 physical cores, 8 logical processors, using up to 8 threads
Optimize a model with 11909 rows, 116456 columns and 340380 nonzeros
Model fingerprint: 0xfcea9b1f
Coefficient statistics:
  Matrix range     [1e+00, 2e+01]
  Objective range  [1e+00, 1e+00]
  Bounds range     [1e+00, 1e+00]
  RHS range        [1e+00, 2e+01]

Concurrent LP optimizer: primal simplex, dual simplex, and barrier
Showing barrier log only...

Presolve removed 18 rows and 93963 columns
Presolve time: 0.14s
Presolved: 11891 rows, 22493 columns, 187900 nonzeros

Ordering time: 0.45s

Barrier statistics:
 Dense cols : 2
 AA' NZ     : 4.926e+05
 Factor NZ  : 5.216e+06 (roughly 60 MB of memory)
 Factor Ops : 9.267e+09 (less than 1 second per iteration)
 Threads    : 6

                  Objective                Residual
Iter       Primal          Dual         Primal    Dual     Compl     Time
   0   3.35679433e+03  4.02106369e+03  3.24e+04 2.50e-01  1.15e+00     1s
   1   4.05185758e+03  4.77034739e+03  1.15e+04 2.75e-01  4.48e-01     1s
   2   4.73088283e+03  5.30526099e+03  5.21e+03 1.60e-01  2.23e-01     1s
   3   4.07670504e+03  4.92440526e+03  1.27e+03 5.58e-02  6.96e-02     1s
   4   3.84499025e+03  4.22259716e+03  5.52e+02 2.43e-02  3.28e-02     1s
   5   3.72007275e+03  3.94926728e+03  2.71e+02 1.66e-02  1.97e-02     1s
   6   3.61990352e+03  3.77532297e+03  1.28e+02 1.13e-02  1.16e-02     1s
   7   3.56598771e+03  3.65720540e+03  8.11e+01 8.11e-03  7.98e-03     1s
   8   3.53415315e+03  3.56300671e+03  6.09e+01 5.35e-03  5.51e-03     1s
   9   3.50126184e+03  3.53084279e+03  4.17e+01 4.42e-03  4.27e-03     1s
  10   3.47893813e+03  3.51264957e+03  3.08e+01 3.88e-03  3.60e-03     2s
  11   3.46296209e+03  3.49446221e+03  2.39e+01 3.33e-03  3.03e-03     2s
  12   3.44900647e+03  3.48188542e+03  1.82e+01 3.02e-03  2.67e-03     2s
  13   3.44497606e+03  3.47881739e+03  1.68e+01 2.92e-03  2.57e-03     2s
  14   3.43957704e+03  3.46827245e+03  1.51e+01 2.67e-03  2.34e-03     2s
  15   3.43605917e+03  3.46290327e+03  1.40e+01 2.51e-03  2.21e-03     2s
  16   3.43382423e+03  3.45633909e+03  1.34e+01 2.37e-03  2.06e-03     2s
  17   3.43124290e+03  3.44992123e+03  1.26e+01 2.23e-03  1.92e-03     2s
  18   3.42180351e+03  3.43968385e+03  9.91e+00 1.93e-03  1.64e-03     2s
  19   3.41825860e+03  3.43261885e+03  8.98e+00 1.75e-03  1.49e-03     2s
  20   3.41584407e+03  3.42858738e+03  8.39e+00 1.67e-03  1.41e-03     2s
  21   3.41038893e+03  3.41590183e+03  7.12e+00 1.34e-03  1.10e-03     2s
  22   3.40787449e+03  3.41059455e+03  6.57e+00 1.22e-03  9.84e-04     2s
  23   3.40600276e+03  3.40403162e+03  6.16e+00 1.05e-03  8.34e-04     3s
  24   3.40465130e+03  3.40334537e+03  5.87e+00 1.03e-03  8.16e-04     3s
  25   3.40316040e+03  3.40002638e+03  5.56e+00 9.42e-04  7.36e-04     3s
  26   3.40186716e+03  3.39925256e+03  5.29e+00 9.04e-04  7.03e-04     3s
  27   3.39886815e+03  3.39538047e+03  4.67e+00 8.18e-04  6.23e-04     3s
  28   3.39795455e+03  3.39446891e+03  4.49e+00 7.94e-04  6.05e-04     3s
  29   3.39608460e+03  3.39206980e+03  4.12e+00 7.43e-04  5.60e-04     3s
  30   3.39547928e+03  3.39191131e+03  4.00e+00 7.21e-04  5.44e-04     3s

Barrier performed 30 iterations in 3.10 seconds (3.51 work units)
Barrier solve interrupted - model solved by another algorithm


Solved with primal simplex
Solved in 6075 iterations and 3.10 seconds (4.00 work units)
Optimal objective  3.368784954e+03
